(set-info :smt-lib-version 2.6)
(set-logic QF_NIA)
(set-info :source |
Generated by: Cristina Borralleras, Daniel Larraz, Albert Oliveras, Enric Rodriguez-Carbonell, Albert Rubio
Generated on: 2017-04-27
Generator: VeryMax
Application: Termination proving
Target solver: barcelogic
|)
(set-info :license "https://creativecommons.org/licenses/by/4.0/")
(set-info :category "industrial")
(set-info :status sat)
(declare-fun Nl5arg11 () Int)
(declare-fun Nl5arg21 () Int)
(declare-fun Nl5arg31 () Int)
(declare-fun Nl5arg41 () Int)
(declare-fun lam0n0 () Int)
(declare-fun lam0n1 () Int)
(declare-fun lam0n2 () Int)
(declare-fun lam0n3 () Int)
(declare-fun lam0n4 () Int)
(declare-fun lam0n5 () Int)
(declare-fun lam0n6 () Int)
(declare-fun lam0n7 () Int)
(declare-fun lam0n8 () Int)
(declare-fun lam0n9 () Int)
(declare-fun lam0n10 () Int)
(declare-fun lam0n11 () Int)
(declare-fun lam0n12 () Int)
(declare-fun lam0n13 () Int)
(declare-fun lam0n14 () Int)
(declare-fun lam0n15 () Int)
(declare-fun lam0n16 () Int)
(declare-fun UndefCntr0_CT () Int)
(declare-fun Nl5CT1 () Int)
(declare-fun UndefCntr0_arg1 () Int)
(declare-fun UndefCntr0_arg2 () Int)
(declare-fun UndefCntr0_arg3 () Int)
(declare-fun UndefCntr0_arg4 () Int)
(declare-fun UndefCntr0_undef43 () Int)
(declare-fun UndefCntr0_undef44 () Int)
(declare-fun UndefCntr0_undef45 () Int)
(declare-fun UndefCntr0_undef46 () Int)
(declare-fun lam1n0 () Int)
(declare-fun lam1n1 () Int)
(declare-fun lam1n2 () Int)
(declare-fun lam1n3 () Int)
(declare-fun lam1n4 () Int)
(declare-fun lam1n5 () Int)
(declare-fun lam1n6 () Int)
(declare-fun lam1n7 () Int)
(declare-fun lam1n8 () Int)
(declare-fun lam1n9 () Int)
(declare-fun lam1n10 () Int)
(declare-fun lam1n11 () Int)
(declare-fun lam1n12 () Int)
(declare-fun lam1n13 () Int)
(declare-fun lam1n14 () Int)
(declare-fun lam1n15 () Int)
(declare-fun lam1n16 () Int)
(declare-fun lam2n0 () Int)
(declare-fun lam2n1 () Int)
(declare-fun lam2n2 () Int)
(declare-fun lam2n3 () Int)
(declare-fun lam2n4 () Int)
(declare-fun lam2n5 () Int)
(declare-fun lam2n6 () Int)
(declare-fun lam2n7 () Int)
(declare-fun lam2n8 () Int)
(declare-fun lam2n9 () Int)
(declare-fun lam2n10 () Int)
(declare-fun lam2n11 () Int)
(declare-fun lam2n12 () Int)
(declare-fun lam2n13 () Int)
(declare-fun lam2n14 () Int)
(declare-fun lam2n15 () Int)
(declare-fun lam2n16 () Int)
(declare-fun lam2n17 () Int)
(declare-fun lam2n18 () Int)
(declare-fun lam2n19 () Int)
(declare-fun lam2n20 () Int)
(declare-fun lam2n21 () Int)
(declare-fun lam2n22 () Int)
(declare-fun lam2n23 () Int)
(declare-fun lam3n0 () Int)
(declare-fun lam3n1 () Int)
(declare-fun lam3n2 () Int)
(declare-fun lam3n3 () Int)
(declare-fun lam3n4 () Int)
(declare-fun lam3n5 () Int)
(declare-fun lam3n6 () Int)
(declare-fun lam3n7 () Int)
(declare-fun lam3n8 () Int)
(declare-fun lam3n9 () Int)
(declare-fun lam3n10 () Int)
(declare-fun lam3n11 () Int)
(declare-fun lam3n12 () Int)
(declare-fun lam3n13 () Int)
(declare-fun lam3n14 () Int)
(declare-fun lam3n15 () Int)
(declare-fun lam3n16 () Int)
(declare-fun lam3n17 () Int)
(declare-fun lam3n18 () Int)
(declare-fun lam3n19 () Int)
(declare-fun lam3n20 () Int)
(declare-fun lam3n21 () Int)
(declare-fun lam3n22 () Int)
(declare-fun lam4n0 () Int)
(declare-fun lam4n1 () Int)
(declare-fun lam4n2 () Int)
(declare-fun lam4n3 () Int)
(declare-fun lam4n4 () Int)
(declare-fun lam4n5 () Int)
(declare-fun lam4n6 () Int)
(declare-fun lam4n7 () Int)
(declare-fun lam4n8 () Int)
(declare-fun lam4n9 () Int)
(declare-fun lam4n10 () Int)
(declare-fun lam4n11 () Int)
(declare-fun lam4n12 () Int)
(declare-fun lam4n13 () Int)
(declare-fun lam4n14 () Int)
(declare-fun lam4n15 () Int)
(declare-fun lam4n16 () Int)
(declare-fun lam4n17 () Int)
(declare-fun lam4n18 () Int)
(declare-fun lam4n19 () Int)
(declare-fun lam4n20 () Int)
(declare-fun lam4n21 () Int)
(declare-fun lam4n22 () Int)
(declare-fun lam4n23 () Int)
(declare-fun lam5n0 () Int)
(declare-fun lam5n1 () Int)
(declare-fun lam5n2 () Int)
(declare-fun lam5n3 () Int)
(declare-fun lam5n4 () Int)
(declare-fun lam5n5 () Int)
(declare-fun lam5n6 () Int)
(declare-fun lam5n7 () Int)
(declare-fun lam5n8 () Int)
(declare-fun lam5n9 () Int)
(declare-fun lam5n10 () Int)
(declare-fun lam5n11 () Int)
(declare-fun lam5n12 () Int)
(declare-fun lam5n13 () Int)
(declare-fun lam5n14 () Int)
(declare-fun lam5n15 () Int)
(declare-fun lam5n16 () Int)
(declare-fun lam5n17 () Int)
(declare-fun lam5n18 () Int)
(declare-fun lam5n19 () Int)
(declare-fun lam5n20 () Int)
(declare-fun lam5n21 () Int)
(declare-fun lam5n22 () Int)
(declare-fun undef2 () Int)
(declare-fun undef12 () Int)
(declare-fun undef13 () Int)
(declare-fun undef14 () Int)
(declare-fun undef41 () Int)
(declare-fun undef38 () Int)
(declare-fun undef39 () Int)
(declare-fun undef40 () Int)
(declare-fun undef53 () Int)
(declare-fun undef1 () Int)
(declare-fun undef6 () Int)
(declare-fun undef16 () Int)
(declare-fun undef54 () Int)
(declare-fun undef17 () Int)
(declare-fun undef18 () Int)
(declare-fun undef19 () Int)
(declare-fun undef22 () Int)
(declare-fun undef21 () Int)
(declare-fun undef8 () Int)
(declare-fun undef7 () Int)
(declare-fun FV_arg1_1 () Int)
(declare-fun FV_arg2_1 () Int)
(declare-fun FV_arg3_1 () Int)
(declare-fun FV_arg4_1 () Int)
(declare-fun lam6n0 () Int)
(declare-fun lam6n1 () Int)
(declare-fun lam6n2 () Int)
(declare-fun lam6n3 () Int)
(declare-fun lam6n4 () Int)
(declare-fun lam7n0 () Int)
(declare-fun lam7n1 () Int)
(declare-fun lam7n2 () Int)
(declare-fun lam7n3 () Int)
(declare-fun lam7n4 () Int)
(declare-fun UndefDef0undef43_CT () Int)
(declare-fun UndefDef0undef43_arg1 () Int)
(declare-fun UndefDef0undef43_arg2 () Int)
(declare-fun UndefDef0undef43_arg3 () Int)
(declare-fun UndefDef0undef43_arg4 () Int)
(declare-fun lam8n0 () Int)
(declare-fun lam8n1 () Int)
(declare-fun lam8n2 () Int)
(declare-fun lam8n3 () Int)
(declare-fun lam8n4 () Int)
(declare-fun UndefDef0undef46_CT () Int)
(declare-fun UndefDef0undef46_arg1 () Int)
(declare-fun UndefDef0undef46_arg2 () Int)
(declare-fun UndefDef0undef46_arg3 () Int)
(declare-fun UndefDef0undef46_arg4 () Int)
(declare-fun lam9n0 () Int)
(declare-fun lam9n1 () Int)
(declare-fun lam9n2 () Int)
(declare-fun lam9n3 () Int)
(declare-fun lam9n4 () Int)
(declare-fun lam10n0 () Int)
(declare-fun lam10n1 () Int)
(declare-fun lam10n2 () Int)
(declare-fun lam10n3 () Int)
(declare-fun lam10n4 () Int)
(declare-fun UndefDef0undef44_CT () Int)
(declare-fun UndefDef0undef44_arg1 () Int)
(declare-fun UndefDef0undef44_arg2 () Int)
(declare-fun UndefDef0undef44_arg3 () Int)
(declare-fun UndefDef0undef44_arg4 () Int)
(declare-fun lam11n0 () Int)
(declare-fun lam11n1 () Int)
(declare-fun lam11n2 () Int)
(declare-fun lam11n3 () Int)
(declare-fun lam11n4 () Int)
(declare-fun UndefDef0undef45_CT () Int)
(declare-fun UndefDef0undef45_arg1 () Int)
(declare-fun UndefDef0undef45_arg2 () Int)
(declare-fun UndefDef0undef45_arg3 () Int)
(declare-fun UndefDef0undef45_arg4 () Int)
(declare-fun lam12n0 () Int)
(declare-fun lam12n1 () Int)
(declare-fun lam12n2 () Int)
(declare-fun lam12n3 () Int)
(declare-fun lam12n4 () Int)
(declare-fun lam13n0 () Int)
(declare-fun lam13n1 () Int)
(declare-fun lam13n2 () Int)
(declare-fun lam13n3 () Int)
(declare-fun lam13n4 () Int)
(declare-fun lam14n0 () Int)
(declare-fun lam14n1 () Int)
(declare-fun lam14n2 () Int)
(declare-fun lam14n3 () Int)
(declare-fun lam14n4 () Int)
(declare-fun lam15n0 () Int)
(declare-fun lam15n1 () Int)
(declare-fun lam15n2 () Int)
(declare-fun lam15n3 () Int)
(declare-fun lam15n4 () Int)
(declare-fun lam16n0 () Int)
(declare-fun lam16n1 () Int)
(declare-fun lam16n2 () Int)
(declare-fun lam16n3 () Int)
(declare-fun lam16n4 () Int)
(declare-fun lam17n0 () Int)
(declare-fun lam17n1 () Int)
(declare-fun lam17n2 () Int)
(declare-fun lam17n3 () Int)
(declare-fun lam17n4 () Int)
(declare-fun lam18n0 () Int)
(declare-fun lam18n1 () Int)
(declare-fun lam18n2 () Int)
(declare-fun lam18n3 () Int)
(declare-fun lam18n4 () Int)
(declare-fun lam19n0 () Int)
(declare-fun lam19n1 () Int)
(declare-fun lam19n2 () Int)
(declare-fun lam19n3 () Int)
(declare-fun lam19n4 () Int)
(declare-fun lam20n0 () Int)
(declare-fun lam20n1 () Int)
(declare-fun lam20n2 () Int)
(declare-fun lam20n3 () Int)
(declare-fun FV_arg1_2 () Int)
(declare-fun FV_arg4_2 () Int)
(declare-fun FV_arg3_2 () Int)
(declare-fun FV_arg2_2 () Int)
(declare-fun FV_undef43_2 () Int)
(declare-fun FV_undef46_2 () Int)
(declare-fun FV_undef44_2 () Int)
(declare-fun FV_undef45_2 () Int)
(assert ( and ( <= ( - 1 ) Nl5arg11 ) ( <= Nl5arg11 1 ) ( <= ( - 1 ) Nl5arg21 ) ( <= Nl5arg21 1 ) ( <= ( - 1 ) Nl5arg31 ) ( <= Nl5arg31 1 ) ( <= ( - 1 ) Nl5arg41 ) ( <= Nl5arg41 1 ) ))
(assert ( or ( and ( >= lam0n0 0 ) ( >= lam0n1 0 ) ( >= lam0n2 0 ) ( >= lam0n3 0 ) ( >= lam0n4 0 ) ( >= lam0n5 0 ) ( >= lam0n6 0 ) ( >= lam0n7 0 ) ( >= lam0n8 0 ) ( >= lam0n9 0 ) ( >= lam0n10 0 ) ( >= lam0n11 0 ) ( >= lam0n12 0 ) ( >= lam0n13 0 ) ( >= lam0n14 0 ) ( >= lam0n15 0 ) ( >= lam0n16 0 ) ( > ( + ( * 1 lam0n0 ) ( * 1 lam0n1 ) ( * 1 lam0n2 ) ( * 1 lam0n3 ) ( * 2 lam0n8 ) ( * 2 lam0n9 ) ( * ( - 2 ) lam0n10 ) ( * ( - 2 ) lam0n11 ) ( * 3 lam0n12 ) ( * 3 lam0n13 ) ( * 3 lam0n14 ) ( * UndefCntr0_CT lam0n15 ) ( * Nl5CT1 lam0n16 ) ( - 1 ) ) 0 ) ( = ( + ( * ( - 1 ) lam0n0 ) ( * ( - 1 ) lam0n4 ) ( * UndefCntr0_arg1 lam0n15 ) ( * Nl5arg11 lam0n16 ) ) 0 ) ( = ( + ( * ( - 1 ) lam0n8 ) ( * UndefCntr0_arg2 lam0n15 ) ( * Nl5arg21 lam0n16 ) ) 0 ) ( = ( + ( * ( - 1 ) lam0n5 ) ( * ( - 1 ) lam0n6 ) ( * ( - 1 ) lam0n9 ) ( * ( - 1 ) lam0n12 ) ( * UndefCntr0_arg3 lam0n15 ) ( * Nl5arg31 lam0n16 ) ) 0 ) ( = ( + ( * ( - 1 ) lam0n1 ) ( * ( - 1 ) lam0n7 ) ( * ( - 1 ) lam0n10 ) ( * ( - 1 ) lam0n11 ) ( * UndefCntr0_arg4 lam0n15 ) ( * Nl5arg41 lam0n16 ) ) 0 ) ( = ( + ( * ( - 1 ) lam0n2 ) ( * 1 lam0n4 ) ( * UndefCntr0_undef43 lam0n15 ) ) 0 ) ( = ( + ( * 1 lam0n5 ) ( * 1 lam0n10 ) ( * ( - 1 ) lam0n13 ) ( * UndefCntr0_undef44 lam0n15 ) ) 0 ) ( = ( + ( * 1 lam0n6 ) ( * 1 lam0n11 ) ( * ( - 1 ) lam0n14 ) ( * UndefCntr0_undef45 lam0n15 ) ) 0 ) ( = ( + ( * ( - 1 ) lam0n3 ) ( * 1 lam0n7 ) ( * 1 lam0n9 ) ( * UndefCntr0_undef46 lam0n15 ) ) 0 ) ) ( and ( >= lam1n0 0 ) ( >= lam1n1 0 ) ( >= lam1n2 0 ) ( >= lam1n3 0 ) ( >= lam1n4 0 ) ( >= lam1n5 0 ) ( >= lam1n6 0 ) ( >= lam1n7 0 ) ( >= lam1n8 0 ) ( >= lam1n9 0 ) ( >= lam1n10 0 ) ( >= lam1n11 0 ) ( >= lam1n12 0 ) ( >= lam1n13 0 ) ( >= lam1n14 0 ) ( >= lam1n15 0 ) ( >= lam1n16 0 ) ( > ( + ( * 1 lam1n0 ) ( * 1 lam1n1 ) ( * 1 lam1n2 ) ( * 1 lam1n3 ) ( * 2 lam1n8 ) ( * 2 lam1n9 ) ( * ( - 2 ) lam1n10 ) ( * ( - 2 ) lam1n11 ) ( * 3 lam1n12 ) ( * 3 lam1n13 ) ( * 3 lam1n14 ) ( * UndefCntr0_CT lam1n15 ) ( * Nl5CT1 lam1n16 ) ( - 1 ( + ( + ( + ( + Nl5CT1 ( * Nl5arg11 0 ) ) ( * Nl5arg21 0 ) ) ( * Nl5arg31 0 ) ) ( * Nl5arg41 0 ) ) ) ) 0 ) ( = ( + ( * ( - 1 ) lam1n0 ) ( * ( - 1 ) lam1n4 ) ( * UndefCntr0_arg1 lam1n15 ) ( * Nl5arg11 lam1n16 ) ) 0 ) ( = ( + ( * ( - 1 ) lam1n8 ) ( * UndefCntr0_arg2 lam1n15 ) ( * Nl5arg21 lam1n16 ) ) 0 ) ( = ( + ( * ( - 1 ) lam1n5 ) ( * ( - 1 ) lam1n6 ) ( * ( - 1 ) lam1n9 ) ( * ( - 1 ) lam1n12 ) ( * UndefCntr0_arg3 lam1n15 ) ( * Nl5arg31 lam1n16 ) ) 0 ) ( = ( + ( * ( - 1 ) lam1n1 ) ( * ( - 1 ) lam1n7 ) ( * ( - 1 ) lam1n10 ) ( * ( - 1 ) lam1n11 ) ( * UndefCntr0_arg4 lam1n15 ) ( * Nl5arg41 lam1n16 ) ) 0 ) ( = ( + ( * ( - 1 ) lam1n2 ) ( * 1 lam1n4 ) ( * UndefCntr0_undef43 lam1n15 ) ( - ( + 0 ( * Nl5arg11 1 ) ) ) ) 0 ) ( = ( + ( * 1 lam1n5 ) ( * 1 lam1n10 ) ( * ( - 1 ) lam1n13 ) ( * UndefCntr0_undef44 lam1n15 ) ( - ( + 0 ( * Nl5arg21 1 ) ) ) ) 0 ) ( = ( + ( * 1 lam1n6 ) ( * 1 lam1n11 ) ( * ( - 1 ) lam1n14 ) ( * UndefCntr0_undef45 lam1n15 ) ( - ( + 0 ( * Nl5arg31 1 ) ) ) ) 0 ) ( = ( + ( * ( - 1 ) lam1n3 ) ( * 1 lam1n7 ) ( * 1 lam1n9 ) ( * UndefCntr0_undef46 lam1n15 ) ( - ( + 0 ( * Nl5arg41 1 ) ) ) ) 0 ) ) ))
(assert ( and ( <= ( + Nl5CT1 ( * Nl5arg11 FV_arg1_1 ) ( * Nl5arg21 FV_arg2_1 ) ( * Nl5arg31 FV_arg3_1 ) ( * Nl5arg41 FV_arg4_1 ) ) 0 ) ( <= ( + 1 ( * ( - 1 ) FV_arg1_1 ) ) 0 ) ( <= ( + 1 ( * ( - 1 ) FV_arg4_1 ) ) 0 ) ))
(assert ( or ( not ( = UndefCntr0_arg1 0 ) ) ( not ( = UndefCntr0_arg2 0 ) ) ( not ( = UndefCntr0_arg3 0 ) ) ( not ( = UndefCntr0_arg4 0 ) ) ( not ( = UndefCntr0_undef43 0 ) ) ( not ( = UndefCntr0_undef44 0 ) ) ( not ( = UndefCntr0_undef45 0 ) ) ( not ( = UndefCntr0_undef46 0 ) ) ( = UndefCntr0_CT 0 ) ))
(assert ( or ( and ( = UndefCntr0_arg1 0 ) ( = UndefCntr0_arg2 0 ) ( = UndefCntr0_arg3 0 ) ( = UndefCntr0_arg4 0 ) ) ( or ( not ( = UndefCntr0_undef43 0 ) ) ( not ( = UndefCntr0_undef44 0 ) ) ( not ( = UndefCntr0_undef45 0 ) ) ( not ( = UndefCntr0_undef46 0 ) ) ) ))
(assert ( or ( and ( >= lam6n0 0 ) ( >= lam6n1 0 ) ( >= lam6n2 0 ) ( >= lam6n3 0 ) ( >= lam6n4 0 ) ( > ( + ( * 1 lam6n0 ) ( * 1 lam6n1 ) ( * 2 lam6n2 ) ( * 3 lam6n3 ) ( * Nl5CT1 lam6n4 ) ( - 1 ) ) 0 ) ( = ( + ( * ( - 1 ) lam6n0 ) ( * Nl5arg11 lam6n4 ) ) 0 ) ( = ( + ( * ( - 1 ) lam6n2 ) ( * Nl5arg21 lam6n4 ) ) 0 ) ( = ( + ( * ( - 1 ) lam6n3 ) ( * Nl5arg31 lam6n4 ) ) 0 ) ( = ( + ( * ( - 1 ) lam6n1 ) ( * Nl5arg41 lam6n4 ) ) 0 ) ) ( and ( and ( >= lam7n0 0 ) ( >= lam7n1 0 ) ( >= lam7n2 0 ) ( >= lam7n3 0 ) ( >= lam7n4 0 ) ( > ( + ( * 1 lam7n0 ) ( * 1 lam7n1 ) ( * 2 lam7n2 ) ( * 3 lam7n3 ) ( * Nl5CT1 lam7n4 ) ( - 1 ( + 1 ( * ( - 1 ) UndefDef0undef43_CT ) ) ) ) 0 ) ( = ( + ( * ( - 1 ) lam7n0 ) ( * Nl5arg11 lam7n4 ) ( - ( * UndefDef0undef43_arg1 ( - 1 ) ) ) ) 0 ) ( = ( + ( * ( - 1 ) lam7n2 ) ( * Nl5arg21 lam7n4 ) ( - ( * UndefDef0undef43_arg2 ( - 1 ) ) ) ) 0 ) ( = ( + ( * ( - 1 ) lam7n3 ) ( * Nl5arg31 lam7n4 ) ( - ( * UndefDef0undef43_arg3 ( - 1 ) ) ) ) 0 ) ( = ( + ( * ( - 1 ) lam7n1 ) ( * Nl5arg41 lam7n4 ) ( - ( * UndefDef0undef43_arg4 ( - 1 ) ) ) ) 0 ) ) ( and ( >= lam8n0 0 ) ( >= lam8n1 0 ) ( >= lam8n2 0 ) ( >= lam8n3 0 ) ( >= lam8n4 0 ) ( > ( + ( * 1 lam8n0 ) ( * 1 lam8n1 ) ( * 2 lam8n2 ) ( * 3 lam8n3 ) ( * Nl5CT1 lam8n4 ) ( - 1 ( + 1 ( * ( - 1 ) UndefDef0undef46_CT ) ) ) ) 0 ) ( = ( + ( * ( - 1 ) lam8n0 ) ( * Nl5arg11 lam8n4 ) ( - ( * UndefDef0undef46_arg1 ( - 1 ) ) ) ) 0 ) ( = ( + ( * ( - 1 ) lam8n2 ) ( * Nl5arg21 lam8n4 ) ( - ( * UndefDef0undef46_arg2 ( - 1 ) ) ) ) 0 ) ( = ( + ( * ( - 1 ) lam8n3 ) ( * Nl5arg31 lam8n4 ) ( - ( * UndefDef0undef46_arg3 ( - 1 ) ) ) ) 0 ) ( = ( + ( * ( - 1 ) lam8n1 ) ( * Nl5arg41 lam8n4 ) ( - ( * UndefDef0undef46_arg4 ( - 1 ) ) ) ) 0 ) ) ( and ( >= lam9n0 0 ) ( >= lam9n1 0 ) ( >= lam9n2 0 ) ( >= lam9n3 0 ) ( >= lam9n4 0 ) ( > ( + ( * 1 lam9n0 ) ( * 1 lam9n1 ) ( * 2 lam9n2 ) ( * 3 lam9n3 ) ( * Nl5CT1 lam9n4 ) ( - 1 ( + ( + 0 0 ) ( * 1 UndefDef0undef43_CT ) ) ) ) 0 ) ( = ( + ( * ( - 1 ) lam9n0 ) ( * Nl5arg11 lam9n4 ) ( - ( + ( - 1 ) ( * UndefDef0undef43_arg1 1 ) ) ) ) 0 ) ( = ( + ( * ( - 1 ) lam9n2 ) ( * Nl5arg21 lam9n4 ) ( - ( * UndefDef0undef43_arg2 1 ) ) ) 0 ) ( = ( + ( * ( - 1 ) lam9n3 ) ( * Nl5arg31 lam9n4 ) ( - ( * UndefDef0undef43_arg3 1 ) ) ) 0 ) ( = ( + ( * ( - 1 ) lam9n1 ) ( * Nl5arg41 lam9n4 ) ( - ( * UndefDef0undef43_arg4 1 ) ) ) 0 ) ) ( and ( >= lam10n0 0 ) ( >= lam10n1 0 ) ( >= lam10n2 0 ) ( >= lam10n3 0 ) ( >= lam10n4 0 ) ( > ( + ( * 1 lam10n0 ) ( * 1 lam10n1 ) ( * 2 lam10n2 ) ( * 3 lam10n3 ) ( * Nl5CT1 lam10n4 ) ( - 1 ( + ( + 0 0 ) ( * 1 UndefDef0undef44_CT ) ) ) ) 0 ) ( = ( + ( * ( - 1 ) lam10n0 ) ( * Nl5arg11 lam10n4 ) ( - ( * UndefDef0undef44_arg1 1 ) ) ) 0 ) ( = ( + ( * ( - 1 ) lam10n2 ) ( * Nl5arg21 lam10n4 ) ( - ( * UndefDef0undef44_arg2 1 ) ) ) 0 ) ( = ( + ( * ( - 1 ) lam10n3 ) ( * Nl5arg31 lam10n4 ) ( - ( + ( - 1 ) ( * UndefDef0undef44_arg3 1 ) ) ) ) 0 ) ( = ( + ( * ( - 1 ) lam10n1 ) ( * Nl5arg41 lam10n4 ) ( - ( * UndefDef0undef44_arg4 1 ) ) ) 0 ) ) ( and ( >= lam11n0 0 ) ( >= lam11n1 0 ) ( >= lam11n2 0 ) ( >= lam11n3 0 ) ( >= lam11n4 0 ) ( > ( + ( * 1 lam11n0 ) ( * 1 lam11n1 ) ( * 2 lam11n2 ) ( * 3 lam11n3 ) ( * Nl5CT1 lam11n4 ) ( - 1 ( + ( + 0 0 ) ( * 1 UndefDef0undef45_CT ) ) ) ) 0 ) ( = ( + ( * ( - 1 ) lam11n0 ) ( * Nl5arg11 lam11n4 ) ( - ( * UndefDef0undef45_arg1 1 ) ) ) 0 ) ( = ( + ( * ( - 1 ) lam11n2 ) ( * Nl5arg21 lam11n4 ) ( - ( * UndefDef0undef45_arg2 1 ) ) ) 0 ) ( = ( + ( * ( - 1 ) lam11n3 ) ( * Nl5arg31 lam11n4 ) ( - ( + ( - 1 ) ( * UndefDef0undef45_arg3 1 ) ) ) ) 0 ) ( = ( + ( * ( - 1 ) lam11n1 ) ( * Nl5arg41 lam11n4 ) ( - ( * UndefDef0undef45_arg4 1 ) ) ) 0 ) ) ( and ( >= lam12n0 0 ) ( >= lam12n1 0 ) ( >= lam12n2 0 ) ( >= lam12n3 0 ) ( >= lam12n4 0 ) ( > ( + ( * 1 lam12n0 ) ( * 1 lam12n1 ) ( * 2 lam12n2 ) ( * 3 lam12n3 ) ( * Nl5CT1 lam12n4 ) ( - 1 ( + ( + 0 0 ) ( * 1 UndefDef0undef46_CT ) ) ) ) 0 ) ( = ( + ( * ( - 1 ) lam12n0 ) ( * Nl5arg11 lam12n4 ) ( - ( * UndefDef0undef46_arg1 1 ) ) ) 0 ) ( = ( + ( * ( - 1 ) lam12n2 ) ( * Nl5arg21 lam12n4 ) ( - ( * UndefDef0undef46_arg2 1 ) ) ) 0 ) ( = ( + ( * ( - 1 ) lam12n3 ) ( * Nl5arg31 lam12n4 ) ( - ( * UndefDef0undef46_arg3 1 ) ) ) 0 ) ( = ( + ( * ( - 1 ) lam12n1 ) ( * Nl5arg41 lam12n4 ) ( - ( + ( - 1 ) ( * UndefDef0undef46_arg4 1 ) ) ) ) 0 ) ) ( and ( >= lam13n0 0 ) ( >= lam13n1 0 ) ( >= lam13n2 0 ) ( >= lam13n3 0 ) ( >= lam13n4 0 ) ( > ( + ( * 1 lam13n0 ) ( * 1 lam13n1 ) ( * 2 lam13n2 ) ( * 3 lam13n3 ) ( * Nl5CT1 lam13n4 ) ( - 1 ( + ( + 2 0 ) ( * 1 UndefDef0undef46_CT ) ) ) ) 0 ) ( = ( + ( * ( - 1 ) lam13n0 ) ( * Nl5arg11 lam13n4 ) ( - ( * UndefDef0undef46_arg1 1 ) ) ) 0 ) ( = ( + ( * ( - 1 ) lam13n2 ) ( * Nl5arg21 lam13n4 ) ( - ( * UndefDef0undef46_arg2 1 ) ) ) 0 ) ( = ( + ( * ( - 1 ) lam13n3 ) ( * Nl5arg31 lam13n4 ) ( - ( + ( - 1 ) ( * UndefDef0undef46_arg3 1 ) ) ) ) 0 ) ( = ( + ( * ( - 1 ) lam13n1 ) ( * Nl5arg41 lam13n4 ) ( - ( * UndefDef0undef46_arg4 1 ) ) ) 0 ) ) ( and ( >= lam14n0 0 ) ( >= lam14n1 0 ) ( >= lam14n2 0 ) ( >= lam14n3 0 ) ( >= lam14n4 0 ) ( > ( + ( * 1 lam14n0 ) ( * 1 lam14n1 ) ( * 2 lam14n2 ) ( * 3 lam14n3 ) ( * Nl5CT1 lam14n4 ) ( - 1 ( + ( + ( - 2 ) 0 ) ( * 1 UndefDef0undef44_CT ) ) ) ) 0 ) ( = ( + ( * ( - 1 ) lam14n0 ) ( * Nl5arg11 lam14n4 ) ( - ( * UndefDef0undef44_arg1 1 ) ) ) 0 ) ( = ( + ( * ( - 1 ) lam14n2 ) ( * Nl5arg21 lam14n4 ) ( - ( * UndefDef0undef44_arg2 1 ) ) ) 0 ) ( = ( + ( * ( - 1 ) lam14n3 ) ( * Nl5arg31 lam14n4 ) ( - ( * UndefDef0undef44_arg3 1 ) ) ) 0 ) ( = ( + ( * ( - 1 ) lam14n1 ) ( * Nl5arg41 lam14n4 ) ( - ( + ( - 1 ) ( * UndefDef0undef44_arg4 1 ) ) ) ) 0 ) ) ( and ( >= lam15n0 0 ) ( >= lam15n1 0 ) ( >= lam15n2 0 ) ( >= lam15n3 0 ) ( >= lam15n4 0 ) ( > ( + ( * 1 lam15n0 ) ( * 1 lam15n1 ) ( * 2 lam15n2 ) ( * 3 lam15n3 ) ( * Nl5CT1 lam15n4 ) ( - 1 ( + ( + ( - 2 ) 0 ) ( * 1 UndefDef0undef45_CT ) ) ) ) 0 ) ( = ( + ( * ( - 1 ) lam15n0 ) ( * Nl5arg11 lam15n4 ) ( - ( * UndefDef0undef45_arg1 1 ) ) ) 0 ) ( = ( + ( * ( - 1 ) lam15n2 ) ( * Nl5arg21 lam15n4 ) ( - ( * UndefDef0undef45_arg2 1 ) ) ) 0 ) ( = ( + ( * ( - 1 ) lam15n3 ) ( * Nl5arg31 lam15n4 ) ( - ( * UndefDef0undef45_arg3 1 ) ) ) 0 ) ( = ( + ( * ( - 1 ) lam15n1 ) ( * Nl5arg41 lam15n4 ) ( - ( + ( - 1 ) ( * UndefDef0undef45_arg4 1 ) ) ) ) 0 ) ) ( and ( >= lam16n0 0 ) ( >= lam16n1 0 ) ( >= lam16n2 0 ) ( >= lam16n3 0 ) ( >= lam16n4 0 ) ( > ( + ( * 1 lam16n0 ) ( * 1 lam16n1 ) ( * 2 lam16n2 ) ( * 3 lam16n3 ) ( * Nl5CT1 lam16n4 ) ( - 1 ( + 3 ( * ( - 1 ) UndefDef0undef44_CT ) ) ) ) 0 ) ( = ( + ( * ( - 1 ) lam16n0 ) ( * Nl5arg11 lam16n4 ) ( - ( * UndefDef0undef44_arg1 ( - 1 ) ) ) ) 0 ) ( = ( + ( * ( - 1 ) lam16n2 ) ( * Nl5arg21 lam16n4 ) ( - ( * UndefDef0undef44_arg2 ( - 1 ) ) ) ) 0 ) ( = ( + ( * ( - 1 ) lam16n3 ) ( * Nl5arg31 lam16n4 ) ( - ( * UndefDef0undef44_arg3 ( - 1 ) ) ) ) 0 ) ( = ( + ( * ( - 1 ) lam16n1 ) ( * Nl5arg41 lam16n4 ) ( - ( * UndefDef0undef44_arg4 ( - 1 ) ) ) ) 0 ) ) ( and ( >= lam17n0 0 ) ( >= lam17n1 0 ) ( >= lam17n2 0 ) ( >= lam17n3 0 ) ( >= lam17n4 0 ) ( > ( + ( * 1 lam17n0 ) ( * 1 lam17n1 ) ( * 2 lam17n2 ) ( * 3 lam17n3 ) ( * Nl5CT1 lam17n4 ) ( - 1 ( + 3 ( * ( - 1 ) UndefDef0undef45_CT ) ) ) ) 0 ) ( = ( + ( * ( - 1 ) lam17n0 ) ( * Nl5arg11 lam17n4 ) ( - ( * UndefDef0undef45_arg1 ( - 1 ) ) ) ) 0 ) ( = ( + ( * ( - 1 ) lam17n2 ) ( * Nl5arg21 lam17n4 ) ( - ( * UndefDef0undef45_arg2 ( - 1 ) ) ) ) 0 ) ( = ( + ( * ( - 1 ) lam17n3 ) ( * Nl5arg31 lam17n4 ) ( - ( * UndefDef0undef45_arg3 ( - 1 ) ) ) ) 0 ) ( = ( + ( * ( - 1 ) lam17n1 ) ( * Nl5arg41 lam17n4 ) ( - ( * UndefDef0undef45_arg4 ( - 1 ) ) ) ) 0 ) ) ( or ( and ( = UndefCntr0_undef43 0 ) ( = UndefCntr0_undef44 0 ) ( = UndefCntr0_undef45 0 ) ( = UndefCntr0_undef46 0 ) ) ( and ( >= lam18n0 0 ) ( >= lam18n1 0 ) ( >= lam18n2 0 ) ( >= lam18n3 0 ) ( >= lam18n4 0 ) ( > ( + ( * 1 lam18n0 ) ( * 1 lam18n1 ) ( * 2 lam18n2 ) ( * 3 lam18n3 ) ( * Nl5CT1 lam18n4 ) ( - 1 ( + ( + ( + ( + ( + ( + ( + ( + UndefCntr0_CT 0 ) 0 ) 0 ) 0 ) ( * UndefCntr0_undef43 UndefDef0undef43_CT ) ) ( * UndefCntr0_undef44 UndefDef0undef44_CT ) ) ( * UndefCntr0_undef45 UndefDef0undef45_CT ) ) ( * UndefCntr0_undef46 UndefDef0undef46_CT ) ) ) ) 0 ) ( = ( + ( * ( - 1 ) lam18n0 ) ( * Nl5arg11 lam18n4 ) ( - ( + ( + ( + ( + UndefCntr0_arg1 ( * UndefDef0undef43_arg1 UndefCntr0_undef43 ) ) ( * UndefDef0undef44_arg1 UndefCntr0_undef44 ) ) ( * UndefDef0undef45_arg1 UndefCntr0_undef45 ) ) ( * UndefDef0undef46_arg1 UndefCntr0_undef46 ) ) ) ) 0 ) ( = ( + ( * ( - 1 ) lam18n2 ) ( * Nl5arg21 lam18n4 ) ( - ( + ( + ( + ( + UndefCntr0_arg2 ( * UndefDef0undef43_arg2 UndefCntr0_undef43 ) ) ( * UndefDef0undef44_arg2 UndefCntr0_undef44 ) ) ( * UndefDef0undef45_arg2 UndefCntr0_undef45 ) ) ( * UndefDef0undef46_arg2 UndefCntr0_undef46 ) ) ) ) 0 ) ( = ( + ( * ( - 1 ) lam18n3 ) ( * Nl5arg31 lam18n4 ) ( - ( + ( + ( + ( + UndefCntr0_arg3 ( * UndefDef0undef43_arg3 UndefCntr0_undef43 ) ) ( * UndefDef0undef44_arg3 UndefCntr0_undef44 ) ) ( * UndefDef0undef45_arg3 UndefCntr0_undef45 ) ) ( * UndefDef0undef46_arg3 UndefCntr0_undef46 ) ) ) ) 0 ) ( = ( + ( * ( - 1 ) lam18n1 ) ( * Nl5arg41 lam18n4 ) ( - ( + ( + ( + ( + UndefCntr0_arg4 ( * UndefDef0undef43_arg4 UndefCntr0_undef43 ) ) ( * UndefDef0undef44_arg4 UndefCntr0_undef44 ) ) ( * UndefDef0undef45_arg4 UndefCntr0_undef45 ) ) ( * UndefDef0undef46_arg4 UndefCntr0_undef46 ) ) ) ) 0 ) ) ) ) ))
(assert ( or ( and ( >= lam19n0 0 ) ( >= lam19n1 0 ) ( >= lam19n2 0 ) ( >= lam19n3 0 ) ( >= lam19n4 0 ) ( > ( + ( * 1 lam19n0 ) ( * 1 lam19n1 ) ( * 2 lam19n2 ) ( * ( - 2 ) lam19n3 ) ( * Nl5CT1 lam19n4 ) ( - 1 ) ) 0 ) ( = ( + ( * ( - 1 ) lam19n0 ) ( * Nl5arg11 lam19n4 ) ) 0 ) ( = ( + ( * ( - 1 ) lam19n2 ) ( * Nl5arg21 lam19n4 ) ) 0 ) ( = ( + ( * 1 lam19n3 ) ( * Nl5arg31 lam19n4 ) ) 0 ) ( = ( + ( * ( - 1 ) lam19n1 ) ( * Nl5arg41 lam19n4 ) ) 0 ) ) ( and ( >= lam20n0 0 ) ( >= lam20n1 0 ) ( >= lam20n2 0 ) ( >= lam20n3 0 ) ( > ( + ( * 1 lam20n0 ) ( * 1 lam20n1 ) ( * ( - 1 ) lam20n2 ) ( * Nl5CT1 lam20n3 ) ( - 1 ) ) 0 ) ( = ( + ( * ( - 1 ) lam20n0 ) ( * Nl5arg11 lam20n3 ) ) 0 ) ( = ( + ( * 1 lam20n2 ) ( * Nl5arg21 lam20n3 ) ) 0 ) ( = ( * Nl5arg31 lam20n3 ) 0 ) ( = ( + ( * ( - 1 ) lam20n1 ) ( * Nl5arg41 lam20n3 ) ) 0 ) ) ))
(assert ( and ( <= ( + Nl5CT1 ( * Nl5arg11 FV_arg1_2 ) ( * Nl5arg41 FV_arg4_2 ) ( * Nl5arg31 FV_arg3_2 ) ( * Nl5arg21 FV_arg2_2 ) ) 0 ) ( and ( <= ( + 1 ( * ( - 1 ) FV_arg1_2 ) ) 0 ) ( <= ( + 1 ( * ( - 1 ) FV_arg4_2 ) ) 0 ) ( <= ( + 1 ( * ( - 1 ) FV_undef43_2 ) ) 0 ) ( <= ( + 1 ( * ( - 1 ) FV_undef46_2 ) ) 0 ) ( <= ( + ( * ( - 1 ) FV_arg1_2 ) FV_undef43_2 ) 0 ) ( <= ( + ( * ( - 1 ) FV_arg3_2 ) FV_undef44_2 ) 0 ) ( <= ( + ( * ( - 1 ) FV_arg3_2 ) FV_undef45_2 ) 0 ) ( <= ( + ( * ( - 1 ) FV_arg4_2 ) FV_undef46_2 ) 0 ) ( <= ( + 2 ( * ( - 1 ) FV_arg2_2 ) ) 0 ) ( <= ( + 2 FV_undef46_2 ( * ( - 1 ) FV_arg3_2 ) ) 0 ) ( <= ( + ( - 2 ) ( * ( - 1 ) FV_arg4_2 ) FV_undef44_2 ) 0 ) ( <= ( + ( - 2 ) ( * ( - 1 ) FV_arg4_2 ) FV_undef45_2 ) 0 ) ( <= ( + 3 ( * ( - 1 ) FV_arg3_2 ) ) 0 ) ( <= ( + 3 ( * ( - 1 ) FV_undef44_2 ) ) 0 ) ( <= ( + 3 ( * ( - 1 ) FV_undef45_2 ) ) 0 ) ) ))
(check-sat)
(exit)
